%Chk=file_name
%NProcShared=24
%mem=48000mb
#p b3lyp/6-311++G(3df,3pd) opt freq=noraman

  title
  
0 1
8       -2.9993225309      3.7189500793      0.4634886639                 
6       -2.3537002134      2.5709510227      0.3298166877                 
7       -1.7832297595      1.5671886539      0.2468079497                 
1       -2.9804623276      3.9694522907      1.3995930917    





