%Chk=file_name
%NProcShared=24
%mem=48000mb
#p b3lyp/6-311++G(3df,3pd) opt freq=noraman

  title
  
0 1
1       -3.6113640512      4.4276568547     -0.1743113472                 
1       -3.2682279781      3.8155856202     -0.0800222215   





