%Chk=file_name
%NProcShared=24
%mem=48000mb
#p b3lyp/6-311++G(3df,3pd) opt freq=noraman

  title
  
0 1
7       -3.4492069445      2.7285193540     -0.6364998876                 
1       -2.4318791946      2.7622811605     -0.5889037722                 
1       -3.7608053912      3.6978819888     -0.6765434951                 
1       -3.7608083182      2.3703822386      0.2651671181      





