%Chk=file_name
%NProcShared=24
%mem=48000mb
#p b3lyp/6-311++G(3df,3pd) opt freq=noraman

  title
  
0 1
6        0.000000000      0.000000000      1.226706704
1        0.000000000      0.000000000      2.286405415
7        0.000000000      0.000000000      0.071968595
8        0.000000000      0.000000000     -1.127393543





