%Chk=file_name
%NProcShared=24
%mem=48000mb
#p b3lyp/6-311++G(3df,3pd) opt freq=noraman

  title
  
0 1
6       -3.0111947061      3.7329463795      0.4424075433                 
7       -2.4184378748      2.5464119788     -0.1189547180                 
8       -1.8411365001      1.7658140731      0.5753823189                 
1       -2.8459457504      3.7813696151      1.5408712487   





