%Chk=file_name
%NProcShared=24
%mem=48000mb
#p b3lyp/6-311++G(3df,3pd) opt freq=noraman

  title
  
0 1
8       -3.4579129546      1.8844959710     -0.0191635907                 
6       -2.3520977183      2.7316972601      0.0280178832                 





